; PUSH cw_0 DUP2 DUP4 SWAP2 POP => DUP2 DUP2
(set-option :produce-proofs true)
; 
(set-info :status unknown)
(declare-fun storage_t ((_ BitVec 256) (_ BitVec 256) (_ BitVec 256) Int (_ BitVec 256)) (_ BitVec 256))
(declare-fun w_0 () (_ BitVec 256))
(declare-fun storage_s ((_ BitVec 256) (_ BitVec 256) (_ BitVec 256) Int (_ BitVec 256)) (_ BitVec 256))
(declare-fun exc_halt_t (Int) Bool)
(declare-fun exc_halt_s (Int) Bool)
(declare-fun stack_t ((_ BitVec 256) (_ BitVec 256) (_ BitVec 256) Int (_ BitVec 6)) (_ BitVec 256))
(declare-fun stack_s ((_ BitVec 256) (_ BitVec 256) (_ BitVec 256) Int (_ BitVec 6)) (_ BitVec 256))
(declare-fun sc_t (Int) (_ BitVec 6))
(declare-fun sc_s (Int) (_ BitVec 6))
(declare-fun used_gas_t ((_ BitVec 256) (_ BitVec 256) (_ BitVec 256) Int) Int)
(declare-fun used_gas_s ((_ BitVec 256) (_ BitVec 256) (_ BitVec 256) Int) Int)
(assert
 (exists ((x_0 (_ BitVec 256)) (x_1 (_ BitVec 256)) )(let (($x407 (forall ((w (_ BitVec 256)) )(let ((?x404 (storage_t x_0 x_1 w_0 2 w)))
 (let ((?x1079 (storage_s x_0 x_1 w_0 5 w)))
 (= ?x1079 ?x404))))
 ))
 (let (($x903 (exc_halt_t 2)))
 (let (($x3979 (exc_halt_s 5)))
 (let (($x2105 (= $x3979 $x903)))
 (let (($x9088 (forall ((n (_ BitVec 6)) )(let ((?x4370 (stack_t x_0 x_1 w_0 2 n)))
 (let ((?x1149 (stack_s x_0 x_1 w_0 5 n)))
 (let (($x8854 (= ?x1149 ?x4370)))
 (or (bvsle (sc_t 2) n) $x8854)))))
 ))
 (let ((?x4056 (sc_t 2)))
 (let ((?x805 (sc_s 5)))
 (let (($x4500 (= ?x805 ?x4056)))
 (let ((?x5243 (used_gas_t x_0 x_1 w_0 0)))
 (let ((?x9917 (used_gas_s x_0 x_1 w_0 0)))
 (let (($x9910 (= ?x9917 ?x5243)))
 (let (($x11777 (forall ((w (_ BitVec 256)) )(let ((?x833 (storage_t x_0 x_1 w_0 0 w)))
 (let ((?x5807 (storage_s x_0 x_1 w_0 0 w)))
 (= ?x5807 ?x833))))
 ))
 (let (($x56 (exc_halt_t 0)))
 (let (($x57 (exc_halt_s 0)))
 (let (($x58 (= $x57 $x56)))
 (let (($x1094 (forall ((n (_ BitVec 6)) )(let ((?x1075 (stack_t x_0 x_1 w_0 0 n)))
 (let ((?x5664 (stack_s x_0 x_1 w_0 0 n)))
 (let (($x907 (= ?x5664 ?x1075)))
 (or $x907 (bvsle (sc_t 0) n))))))
 ))
 (let ((?x63 (sc_t 0)))
 (let ((?x72 (sc_s 0)))
 (let (($x73 (= ?x72 ?x63)))
 (let (($x1920 (exc_halt_t 1)))
 (let (($x4971 (or (not (bvsle (_ bv0 6) (bvadd (_ bv62 6) (sc_t 1)))) $x1920 (not (= ((_ extract 6 6) (bvadd (_ bv1 7) (concat (_ bv0 1) (sc_t 1)))) (_ bv0 1))))))
 (let (($x4972 (forall ((w (_ BitVec 256)) )(let ((?x10009 (storage_t x_0 x_1 w_0 1 w)))
 (let ((?x404 (storage_t x_0 x_1 w_0 2 w)))
 (= ?x404 ?x10009))))
 ))
 (let (($x9449 (forall ((n (_ BitVec 6)) )(let ((?x2741 (stack_t x_0 x_1 w_0 1 n)))
 (let ((?x4370 (stack_t x_0 x_1 w_0 2 n)))
 (or (= ?x4370 ?x2741) (bvsle (bvadd (_ bv62 6) (sc_t 1)) n)))))
 ))
 (let (($x6639 (= (used_gas_t x_0 x_1 w_0 2) (+ 3 (used_gas_t x_0 x_1 w_0 1)))))
 (let ((?x4023 (sc_t 1)))
 (let ((?x5283 (bvadd (_ bv63 6) ?x4023)))
 (let ((?x7726 (stack_t x_0 x_1 w_0 1 ?x5283)))
 (let ((?x8761 (bvadd (_ bv62 6) ?x4023)))
 (let ((?x1723 (stack_t x_0 x_1 w_0 1 ?x8761)))
 (let (($x9420 (or $x56 (not (= ((_ extract 6 6) (bvadd (_ bv1 7) (concat (_ bv0 1) ?x63))) (_ bv0 1))) (not (bvsle (_ bv0 6) (bvadd (_ bv62 6) ?x63))))))
 (let (($x8182 (forall ((w (_ BitVec 256)) )(let ((?x833 (storage_t x_0 x_1 w_0 0 w)))
 (let ((?x10009 (storage_t x_0 x_1 w_0 1 w)))
 (= ?x10009 ?x833))))
 ))
 (let (($x1120 (forall ((n (_ BitVec 6)) )(let ((?x1075 (stack_t x_0 x_1 w_0 0 n)))
 (let ((?x2741 (stack_t x_0 x_1 w_0 1 n)))
 (or (bvsle (bvadd (_ bv62 6) (sc_t 0)) n) (= ?x2741 ?x1075)))))
 ))
 (let (($x1287 (= (stack_t x_0 x_1 w_0 1 (bvadd (_ bv63 6) ?x63)) (stack_t x_0 x_1 w_0 0 (bvadd (_ bv63 6) ?x63)))))
 (let ((?x71 (bvadd (_ bv62 6) ?x63)))
 (let ((?x222 (stack_t x_0 x_1 w_0 0 ?x71)))
 (let (($x1810 (= $x3979 (or (exc_halt_s 4) (not (bvsle (_ bv0 6) (bvadd (_ bv63 6) (sc_s 4))))))))
 (let (($x4699 (forall ((w (_ BitVec 256)) )(let ((?x1975 (storage_s x_0 x_1 w_0 4 w)))
 (let ((?x1079 (storage_s x_0 x_1 w_0 5 w)))
 (= ?x1079 ?x1975))))
 ))
 (let (($x4861 (forall ((n (_ BitVec 6)) )(let ((?x1277 (stack_s x_0 x_1 w_0 4 n)))
 (let ((?x1149 (stack_s x_0 x_1 w_0 5 n)))
 (or (= ?x1149 ?x1277) (bvsle (bvadd (_ bv63 6) (sc_s 4)) n)))))
 ))
 (let (($x9570 (= (used_gas_s x_0 x_1 w_0 5) (+ 2 (used_gas_s x_0 x_1 w_0 4)))))
 (let (($x64 (exc_halt_s 4)))
 (let (($x7345 (= $x64 (or (exc_halt_s 3) (not (bvsle (_ bv0 6) (bvadd (_ bv61 6) (sc_s 3))))))))
 (let (($x4495 (forall ((w (_ BitVec 256)) )(let ((?x3176 (storage_s x_0 x_1 w_0 3 w)))
 (let ((?x1975 (storage_s x_0 x_1 w_0 4 w)))
 (= ?x1975 ?x3176))))
 ))
 (let (($x4516 (forall ((n (_ BitVec 6)) )(let ((?x6622 (stack_s x_0 x_1 w_0 3 n)))
 (let ((?x1277 (stack_s x_0 x_1 w_0 4 n)))
 (or (= ?x1277 ?x6622) (bvsle (bvadd (_ bv61 6) (sc_s 3)) n)))))
 ))
 (let ((?x4966 (used_gas_s x_0 x_1 w_0 4)))
 (let (($x2367 (= (stack_s x_0 x_1 w_0 4 (bvadd (_ bv62 6) (sc_s 4))) (stack_s x_0 x_1 w_0 3 (bvadd (_ bv62 6) (sc_s 3))))))
 (let ((?x1957 (stack_s x_0 x_1 w_0 3 (bvadd (_ bv63 6) (sc_s 3)))))
 (let (($x7814 (= (stack_s x_0 x_1 w_0 4 (bvadd (_ bv63 6) (sc_s 4))) (stack_s x_0 x_1 w_0 3 (bvadd (_ bv61 6) (sc_s 3))))))
 (let (($x247 (exc_halt_s 2)))
 (let (($x9304 (or $x247 (not (= ((_ extract 6 6) (bvadd (_ bv1 7) (concat (_ bv0 1) (sc_s 2)))) (_ bv0 1))) (not (bvsle (_ bv0 6) (bvadd (_ bv60 6) (sc_s 2)))))))
 (let (($x292 (exc_halt_s 3)))
 (let (($x10961 (forall ((w (_ BitVec 256)) )(let ((?x1800 (storage_s x_0 x_1 w_0 2 w)))
 (let ((?x3176 (storage_s x_0 x_1 w_0 3 w)))
 (= ?x3176 ?x1800))))
 ))
 (let (($x1802 (forall ((n (_ BitVec 6)) )(let ((?x7097 (stack_s x_0 x_1 w_0 2 n)))
 (let ((?x6622 (stack_s x_0 x_1 w_0 3 n)))
 (or (= ?x6622 ?x7097) (bvsle (bvadd (_ bv60 6) (sc_s 2)) n)))))
 ))
 (let ((?x2521 (used_gas_s x_0 x_1 w_0 3)))
 (let ((?x218 (sc_s 2)))
 (let ((?x712 (bvadd (_ bv63 6) ?x218)))
 (let ((?x1719 (stack_s x_0 x_1 w_0 2 ?x712)))
 (let (($x2962 (= (stack_s x_0 x_1 w_0 3 (bvadd (_ bv62 6) ?x218)) (stack_s x_0 x_1 w_0 2 (bvadd (_ bv62 6) ?x218)))))
 (let (($x1260 (= (stack_s x_0 x_1 w_0 3 (bvadd (_ bv61 6) ?x218)) (stack_s x_0 x_1 w_0 2 (bvadd (_ bv61 6) ?x218)))))
 (let ((?x10975 (bvadd (_ bv60 6) ?x218)))
 (let ((?x6135 (stack_s x_0 x_1 w_0 2 ?x10975)))
 (let (($x189 (exc_halt_s 1)))
 (let (($x1155 (or $x189 (not (bvsle (_ bv0 6) (bvadd (_ bv62 6) (sc_s 1)))) (not (= ((_ extract 6 6) (bvadd (_ bv1 7) (concat (_ bv0 1) (sc_s 1)))) (_ bv0 1))))))
 (let (($x7411 (forall ((w (_ BitVec 256)) )(let ((?x5209 (storage_s x_0 x_1 w_0 1 w)))
 (let ((?x1800 (storage_s x_0 x_1 w_0 2 w)))
 (= ?x1800 ?x5209))))
 ))
 (let (($x1668 (forall ((n (_ BitVec 6)) )(let ((?x1498 (stack_s x_0 x_1 w_0 1 n)))
 (let ((?x7097 (stack_s x_0 x_1 w_0 2 n)))
 (or (= ?x7097 ?x1498) (bvsle (bvadd (_ bv62 6) (sc_s 1)) n)))))
 ))
 (let ((?x4113 (used_gas_s x_0 x_1 w_0 2)))
 (let (($x2090 (= (stack_s x_0 x_1 w_0 2 (bvadd (_ bv63 6) (sc_s 1))) (stack_s x_0 x_1 w_0 1 (bvadd (_ bv63 6) (sc_s 1))))))
 (let ((?x154 (sc_s 1)))
 (let ((?x8781 (bvadd (_ bv62 6) ?x154)))
 (let ((?x8275 (stack_s x_0 x_1 w_0 1 ?x8781)))
 (let (($x4891 (= $x189 (or $x57 (not (= ((_ extract 6 6) (bvadd (_ bv1 7) (concat (_ bv0 1) ?x72))) (_ bv0 1)))))))
 (let (($x1437 (forall ((w (_ BitVec 256)) )(let ((?x5807 (storage_s x_0 x_1 w_0 0 w)))
 (let ((?x5209 (storage_s x_0 x_1 w_0 1 w)))
 (= ?x5209 ?x5807))))
 ))
 (let (($x5479 (forall ((n (_ BitVec 6)) )(let ((?x5664 (stack_s x_0 x_1 w_0 0 n)))
 (let ((?x1498 (stack_s x_0 x_1 w_0 1 n)))
 (or (= ?x1498 ?x5664) (bvsle (sc_s 0) n)))))
 ))
 (let (($x1659 (forall ((w (_ BitVec 256)) )(let ((?x5807 (storage_s x_0 x_1 w_0 0 w)))
 (= ?x5807 (_ bv0 256))))
 ))
 (let (($x822 (= ?x9917 0)))
 (let (($x10177 (= (stack_s x_0 x_1 w_0 0 (_ bv1 6)) x_1)))
 (let (($x1962 (= (stack_s x_0 x_1 w_0 0 (_ bv0 6)) x_0)))
 (let (($x2064 (= ?x72 (_ bv2 6))))
 (and $x2064 $x1962 $x10177 (not $x57) $x822 $x1659 (= (stack_s x_0 x_1 w_0 1 ?x72) w_0) (= (used_gas_s x_0 x_1 w_0 1) (+ 3 ?x9917)) (= ?x154 (bvadd (_ bv1 6) ?x72)) $x5479 $x1437 $x4891 (= ?x1719 ?x8275) (= (stack_s x_0 x_1 w_0 2 ?x8781) ?x8275) $x2090 (= ?x4113 (+ 3 (used_gas_s x_0 x_1 w_0 1))) (= ?x218 (bvadd (_ bv1 6) ?x154)) $x1668 $x7411 (= $x247 $x1155) (= ?x1957 ?x6135) (= (stack_s x_0 x_1 w_0 3 ?x10975) ?x6135) $x1260 $x2962 (= (stack_s x_0 x_1 w_0 3 ?x712) ?x1719) (= ?x2521 (+ 3 ?x4113)) (= (sc_s 3) (bvadd (_ bv1 6) ?x218)) $x1802 $x10961 (= $x292 $x9304) $x7814 (= (stack_s x_0 x_1 w_0 4 (bvadd (_ bv61 6) (sc_s 4))) ?x1957) $x2367 (= ?x4966 (+ 3 ?x2521)) (= (sc_s 4) (sc_s 3)) $x4516 $x4495 $x7345 $x9570 (= ?x805 (bvadd (_ bv63 6) (sc_s 4))) $x4861 $x4699 $x1810 (= ?x7726 ?x222) (= (stack_t x_0 x_1 w_0 1 ?x71) ?x222) $x1287 (= (used_gas_t x_0 x_1 w_0 1) (+ 3 ?x5243)) (= ?x4023 (bvadd (_ bv1 6) ?x63)) $x1120 $x8182 (= $x1920 $x9420) (= (stack_t x_0 x_1 w_0 2 (bvadd (_ bv63 6) ?x4056)) ?x1723) (= (stack_t x_0 x_1 w_0 2 ?x8761) ?x1723) (= (stack_t x_0 x_1 w_0 2 ?x5283) ?x7726) $x6639 (= ?x4056 (bvadd (_ bv1 6) ?x4023)) $x9449 $x4972 (= $x903 $x4971) $x73 $x1094 $x58 $x11777 $x9910 (not (and $x4500 $x9088 $x2105 $x407)))))))))))))))))))))))))))))))))))))))))))))))))))))))))))))))))))))))))))))))))
 )
(check-sat)
(get-proof)
